(set-logic HORN)
(declare-fun rec_array_bubble_sort@summary ((Array Int Int) Int Int (Array Int Int) ) Bool)
(declare-fun rec_array_bubble_sort@pre ((Array Int Int) Int Int ) Bool)
(declare-fun !inv0 ((Array Int Int) Int Int (Array Int Int) Bool Int ) Bool)
(assert (forall ((.array@0 (Array Int Int))(N@0 Int)(.array!size@0 Int)(array@0 (Array Int Int))(swapped@0 Bool)(j@0 Int)) (=> (and (rec_array_bubble_sort@pre |array@0| |.array!size@0| |N@0|) (= |.array@0| |array@0|) (= |swapped@0| false) (= |j@0| (- |N@0| 2))) (!inv0 |.array@0| |.array!size@0| |N@0| |array@0| |swapped@0| |j@0|))))
(assert (forall ((.array@0 (Array Int Int))(.array!size@0 Int)(N@0 Int)(array@0 (Array Int Int))(swapped@0 Bool)(j@0 Int)) (=> (and (!inv0 |.array@0| |.array!size@0| |N@0| |array@0| |swapped@0| |j@0|) (not (>= |j@0| 0)) |swapped@0|) (rec_array_bubble_sort@pre |array@0| |.array!size@0| |N@0|))))
(assert (forall ((N@0 Int)(array@0 (Array Int Int))) (=> (> |N@0| 0) (rec_array_bubble_sort@pre |array@0| |N@0| |N@0|))))
(assert (forall ((N@0 Int)(array@0 (Array Int Int))(array@1 (Array Int Int))) (=> (and (rec_array_bubble_sort@summary |array@0| |N@0| |N@0| |array@1|) (rec_array_bubble_sort@pre |array@0| |N@0| |N@0|) (> |N@0| 0) (not (forall ((k@0 Int)(l@0 Int)) (=> (and (<= 0 |k@0|) (< |k@0| (- |N@0| 1))) (=> (and (<= (+ |k@0| 1) |l@0|) (< |l@0| |N@0|)) (<= (select |array@1| |k@0|) (select |array@1| |l@0|))))))) false)))
(assert (forall ((.array@0 (Array Int Int))(.array!size@0 Int)(N@0 Int)(array@0 (Array Int Int))(swapped@0 Bool)(j@0 Int)(j@1 Int)(array@1 (Array Int Int))(array@2 (Array Int Int))(tmp@0 Int)(swapped@1 Bool)) (=> (and (!inv0 |.array@0| |.array!size@0| |N@0| |array@1| |swapped@1| |j@0|) (= |j@1| (- |j@0| 1)) (>= |j@0| 0) (> (select |array@1| |j@0|) (select |array@1| (+ |j@0| 1))) (= |tmp@0| (select |array@1| |j@0|)) (= |array@2| (store |array@1| |j@0| (select |array@1| (+ |j@0| 1)))) (= |array@0| (store |array@2| (+ |j@0| 1) |tmp@0|)) (= |swapped@0| true)) (!inv0 |.array@0| |.array!size@0| |N@0| |array@0| |swapped@0| |j@1|))))
(assert (forall ((.array@0 (Array Int Int))(.array!size@0 Int)(N@0 Int)(array@0 (Array Int Int))(swapped@0 Bool)(j@0 Int)(j@1 Int)) (=> (and (!inv0 |.array@0| |.array!size@0| |N@0| |array@0| |swapped@0| |j@0|) (= |j@1| (- |j@0| 1)) (>= |j@0| 0) (not (> (select |array@0| |j@0|) (select |array@0| (+ |j@0| 1))))) (!inv0 |.array@0| |.array!size@0| |N@0| |array@0| |swapped@0| |j@1|))))
(assert (forall ((.array@0 (Array Int Int))(.array!size@0 Int)(N@0 Int)(array@0 (Array Int Int))(swapped@0 Bool)(j@0 Int)) (=> (and (!inv0 |.array@0| |.array!size@0| |N@0| |array@0| |swapped@0| |j@0|) (not (>= |j@0| 0)) (not |swapped@0|)) (rec_array_bubble_sort@summary |.array@0| |.array!size@0| |N@0| |array@0|))))
(assert (forall ((.array@0 (Array Int Int))(.array!size@0 Int)(N@0 Int)(array@0 (Array Int Int))(swapped@0 Bool)(j@0 Int)(array@1 (Array Int Int))) (=> (and (rec_array_bubble_sort@summary |array@1| |.array!size@0| |N@0| |array@0|) (rec_array_bubble_sort@pre |array@1| |.array!size@0| |N@0|) (!inv0 |.array@0| |.array!size@0| |N@0| |array@1| |swapped@0| |j@0|) (not (>= |j@0| 0)) |swapped@0|) (rec_array_bubble_sort@summary |.array@0| |.array!size@0| |N@0| |array@0|))))
(check-sat)